p cnf 91 377
2 3 -32 56 59 -62 0
10 20 21 22 69 -77 0
10 21 -69 70 -72 -77 0
20 21 22 -69 -77 88 0
3 4 19 -50 51 0
3 23 -50 -51 68 0
-3 -16 -19 -23 91 0
-4 52 -78 82 -84 0
8 9 -47 55 64 0
-8 -42 46 -60 83 0
-15 29 -30 57 -73 0
20 -38 53 -54 71 0
-38 41 53 -70 71 0
-21 69 70 -72 -77 88 0
2 3 56 59 -62 0
3 4 19 -51 -68 0
-19 -23 25 -28 36 0
-22 -41 -53 70 -72 0
1 10 42 83 0
2 -35 -52 65 0
2 -35 -61 -74 0
3 4 -50 51 0
3 32 -56 61 0
-3 -16 -23 91 0
-3 -16 -50 66 0
-3 -16 66 -89 0
-3 50 66 -89 0
-3 50 -89 91 0
-3 -51 -68 -89 0
-4 52 -61 -84 0
-6 -35 36 37 0
7 8 9 -47 0
7 8 -46 -48 0
7 9 -43 45 0
7 9 -43 46 0
8 -46 -48 64 0
9 45 -47 55 0
10 -21 22 -69 0
10 -27 -28 -33 0
11 26 -27 57 0
11 -31 34 57 0
-11 -15 29 80 0
12 28 -31 57 0
12 -73 -78 -79 0
13 49 85 -86 0
13 49 85 91 0
13 67 -68 -89 0
13 67 -86 -90 0
13 67 -89 91 0
-13 -49 -85 90 0
-15 58 76 80 0
-16 66 67 -89 0
17 23 39 69 0
-19 -24 -59 62 0
20 53 -70 88 0
23 -25 -33 -36 0
29 58 78 80 0
-42 45 60 -83 0
-49 -50 -51 -91 0
66 67 -86 90 0
1 21 69 88 0
1 -42 45 83 0
3 24 56 61 0
-3 -51 -89 91 0
-4 -63 78 -84 0
7 42 -43 45 0
-8 -42 -43 -87 0
9 46 -47 64 0
11 -31 -76 -80 0
-13 68 -85 90 0
-14 -73 78 -79 0
-15 29 -30 58 0
-16 -19 67 91 0
-19 -23 -51 -85 0
-19 -23 -69 -88 0
-19 -23 79 84 0
22 -44 71 -77 0
-23 25 65 -74 0
-23 51 67 91 0
25 27 -28 34 0
26 -27 -28 -34 0
-29 -30 57 -73 0
38 -53 70 72 0
50 -66 67 -89 0
-51 -68 -85 -91 0
66 67 -86 -90 0
1 10 83 0
-1 -20 72 0
-1 36 62 0
3 18 21 0
3 21 23 0
3 -67 89 0
4 5 -52 0
4 5 63 0
4 16 49 0
4 59 -61 0
5 -37 -74 0
-5 -6 61 0
-5 35 52 0
-5 52 78 0
-5 78 84 0
6 -36 -37 0
7 46 60 0
7 -46 -47 0
7 -48 -87 0
-7 -8 87 0
-7 -45 -48 0
-7 -60 70 0
8 -10 -70 0
8 -45 55 0
-8 -9 -46 0
-8 -22 53 0
-9 -40 43 0
-10 -26 27 0
-11 -14 -15 0
12 13 79 0
12 -28 -56 0
-12 57 -78 0
13 85 -86 0
14 30 36 0
-14 -15 58 0
-14 58 78 0
-14 -78 79 0
16 23 51 0
-16 68 -89 0
-16 85 91 0
17 -43 44 0
17 -44 77 0
-17 -18 -55 0
-17 44 77 0
18 47 64 0
-18 -47 -54 0
-18 -47 -64 0
19 32 34 0
19 -33 -75 0
19 38 -67 0
19 -65 -82 0
19 -80 81 0
-19 -27 -57 0
-19 -44 -55 0
-19 -54 71 0
-19 -68 85 0
-19 -79 -84 0
20 54 -70 0
20 -54 -72 0
20 -70 71 0
-20 70 77 0
21 23 39 0
21 39 -42 0
22 41 71 0
23 -25 -27 0
23 40 54 0
23 47 64 0
23 81 85 0
-23 -24 -32 0
-23 -41 -48 0
-24 -35 59 0
25 32 33 0
25 74 75 0
-25 -74 76 0
-26 -28 31 0
27 -34 -57 0
-27 -34 -57 0
-30 -31 -36 0
-35 -59 61 0
-35 74 82 0
36 -37 63 0
36 -61 -63 0
-36 37 63 0
37 -63 82 0
38 53 -54 0
-38 -70 72 0
-39 -48 -64 0
40 42 46 0
40 43 -87 0
42 45 55 0
42 -60 -87 0
-42 -83 -88 0
45 -60 -83 0
-45 -53 55 0
46 47 -64 0
50 -66 67 0
50 -66 89 0
51 -81 -85 0
-51 85 91 0
52 62 78 0
-54 64 81 0
62 82 84 0
-65 74 -75 0
-66 -67 89 0
-66 -86 90 0
-69 -72 88 0
7 8 -46 -47 0
-24 -25 -33 -59 0
1 21 0
1 -23 0
1 24 0
1 -52 0
1 -62 0
1 -87 0
1 88 0
-1 -2 0
-1 -10 0
-1 -11 0
-1 -55 0
-1 56 0
-1 -56 0
-1 -59 0
-1 72 0
-1 78 0
-1 -83 0
2 3 0
2 5 0
2 6 0
2 24 0
2 -61 0
2 75 0
-2 35 0
-2 37 0
-2 61 0
-2 -65 0
-2 -76 0
3 42 0
3 -52 0
3 60 0
3 89 0
-3 -32 0
-3 49 0
-3 50 0
-3 -50 0
-3 51 0
-3 -68 0
4 -51 0
4 -58 0
4 59 0
4 61 0
4 -61 0
4 78 0
4 -78 0
4 -82 0
4 89 0
4 -91 0
-4 61 0
-4 78 0
-4 82 0
5 -37 0
5 44 0
5 -62 0
5 -63 0
5 78 0
5 -82 0
-5 82 0
-5 -82 0
6 10 0
6 35 0
6 -82 0
-6 30 0
-6 62 0
-6 65 0
-6 -65 0
7 -53 0
-7 -42 0
8 -32 0
8 -45 0
8 -60 0
8 83 0
8 -88 0
-8 21 0
-8 48 0
-8 -64 0
-8 -83 0
-9 25 0
-9 -45 0
-9 48 0
10 34 0
10 57 0
10 -70 0
10 -72 0
10 -88 0
-10 -12 0
-10 14 0
-10 28 0
-10 59 0
-10 -70 0
-10 -88 0
11 -12 0
11 13 0
11 14 0
11 -26 0
11 -30 0
11 76 0
-11 -14 0
-11 29 0
-11 30 0
-11 31 0
-11 -76 0
12 -23 0
-12 -13 0
-12 33 0
-12 -37 0
-12 -57 0
-12 -58 0
-12 73 0
-12 79 0
-12 -79 0
13 58 0
13 -79 0
13 -90 0
13 91 0
-13 86 0
14 31 0
14 -57 0
14 -58 0
14 73 0
14 -78 0
14 -79 0
-14 -58 0
-14 -73 0
15 -29 0
15 30 0
15 -57 0
15 -58 0
15 62 0
15 73 0
-15 57 0
-15 -73 0
16 32 0
-16 67 0
-16 85 0
-16 90 0
17 19 0
17 -22 0
17 40 0
-17 25 0
-17 -40 0
-17 -41 0
-17 -44 0
-17 45 0
-17 53 0
-17 -72 0
-17 -77 0
18 41 0
18 42 0
18 60 0
-18 -43 0
-18 -48 0
-18 -60 0
-18 -77 0
-18 81 0
19 21 0
19 41 0
19 59 0
19 68 0
19 69 0
19 75 0
19 -76 0
19 -91 0
-19 -38 0
-19 -40 0
-19 -47 0
-19 52 0
-19 -53 0
-19 -56 0
-19 -60 0
-19 -63 0
-19 80 0
-19 -81 0
-19 86 0
-19 89 0
20 48 0
20 -53 0
-20 -21 0
-20 -22 0
21 -88 0
-21 38 0
-21 -55 0
-21 -88 0
